
Gurobi 10.0.1 (linux64) logging started Sun Nov 26 15:51:51 2023

Set parameter LogFile to value "ArtificialInstance/ExperimentV2/S3T5K2/AdRo/gurobiSpRo33.txt"
Gurobi Optimizer version 10.0.1 build v10.0.1rc0 (linux64)

CPU model: AMD EPYC 7H12 64-Core Processor, instruction set [SSE2|AVX|AVX2]
Thread count: 128 physical cores, 128 logical processors, using up to 32 threads

Academic license 656792 - for non-commercial use only - registered to b.___@student.vu.nl
Optimize a model with 11299 rows, 10573 columns and 41097 nonzeros
Model fingerprint: 0x7b200611
Variable types: 1 continuous, 10572 integer (10572 binary)
Coefficient statistics:
  Matrix range     [1e+00, 4e+01]
  Objective range  [1e+00, 2e+01]
  Bounds range     [1e+00, 1e+00]
  RHS range        [1e+00, 1e+00]
Presolve removed 4946 rows and 4590 columns
Presolve time: 0.14s
Presolved: 6353 rows, 5983 columns, 23387 nonzeros
Variable types: 1 continuous, 5982 integer (5982 binary)

Root relaxation: objective 8.692179e+01, 1900 iterations, 0.08 seconds (0.05 work units)

    Nodes    |    Current Node    |     Objective Bounds      |     Work
 Expl Unexpl |  Obj  Depth IntInf | Incumbent    BestBd   Gap | It/Node Time

     0     0   86.92179    0   26          -   86.92179      -     -    0s
H    0     0                      97.5890075   86.92179  10.9%     -    0s
H    0     0                      86.9217928   86.92179  0.00%     -    0s

Explored 1 nodes (3764 simplex iterations) in 0.34 seconds (0.24 work units)
Thread count was 32 (of 128 available processors)

Solution count 2: 86.9218 97.589 

Optimal solution found (tolerance 1.00e-04)
Best objective 8.692179278657e+01, best bound 8.692179278657e+01, gap 0.0000%
